GLPSOL: GLPK LP/MIP Solver, v4.65
Parameter(s) specified in the command line:
 --write C:\Users\LAB_C\AppData\Local\Temp\tmpw8bgid1c.glpk.raw --wglp C:\Users\LAB_C\AppData\Local\Temp\tmplhe3r5p7.glpk.glp
 --cpxlp C:\Users\LAB_C\AppData\Local\Temp\tmpqa5bd1p1.pyomo.lp
Reading problem data from 'C:\Users\LAB_C\AppData\Local\Temp\tmpqa5bd1p1.pyomo.lp'...
4133730 rows, 2880016 columns, 10271445 non-zeros
2880016 integer variables, none of which are binary
29692677 lines were read
Writing problem data to 'C:\Users\LAB_C\AppData\Local\Temp\tmplhe3r5p7.glpk.glp'...
25198925 lines were written
GLPK Integer Optimizer, v4.65
4133730 rows, 2880016 columns, 10271445 non-zeros
2880016 integer variables, none of which are binary
Preprocessing...
2513728 rows, 2520014 columns, 8471440 non-zeros
2520014 integer variables, 12621 of which are binary
Scaling...
 A: min|aij| =  1.000e+00  max|aij| =  1.000e+00  ratio =  1.000e+00
Problem data seem to be well scaled
Constructing initial basis...
Size of triangular part is 2513728
Solving LP relaxation...
GLPK Simplex Optimizer, v4.65
2513728 rows, 2520014 columns, 8471440 non-zeros
*     0: obj =  -0.000000000e+00 inf =   0.000e+00 (1260000)
*    75: obj =  -0.000000000e+00 inf =   0.000e+00 (1260000)
*   150: obj =  -0.000000000e+00 inf =   0.000e+00 (1260000)
Perturbing LP to avoid stalling [199]...
*   225: obj =  -0.000000000e+00 inf =   0.000e+00 (1260000)
*   300: obj =  -0.000000000e+00 inf =   0.000e+00 (1260000)
*   372: obj =  -0.000000000e+00 inf =   0.000e+00 (1260000)
*   446: obj =  -0.000000000e+00 inf =   0.000e+00 (1260000)
*   520: obj =  -0.000000000e+00 inf =   0.000e+00 (1260000)
*   594: obj =  -0.000000000e+00 inf =   0.000e+00 (1260000)
*   667: obj =  -0.000000000e+00 inf =   0.000e+00 (1260000)
*   739: obj =  -0.000000000e+00 inf =   0.000e+00 (1260000)
*   812: obj =  -0.000000000e+00 inf =   0.000e+00 (1260000)
*   885: obj =  -0.000000000e+00 inf =   0.000e+00 (1260000)
*   958: obj =  -0.000000000e+00 inf =   0.000e+00 (1260000)
*  1029: obj =   3.200000000e+06 inf =   0.000e+00 (516341)
*  1101: obj =   3.252000000e+06 inf =   0.000e+00 (288572)
*  1174: obj =   3.252000000e+06 inf =   0.000e+00 (288499)
*  1247: obj =   3.252000000e+06 inf =   0.000e+00 (288426)
*  1320: obj =   3.252000000e+06 inf =   0.000e+00 (288353)
*  1392: obj =   4.184000000e+06 inf =   0.000e+00 (288292)
*  1462: obj =   7.999200000e+06 inf =   0.000e+00 (240271)
*  1536: obj =   7.999200000e+06 inf =   0.000e+00 (240221)
*  1610: obj =   7.999200000e+06 inf =   0.000e+00 (240221)
*  1683: obj =   7.999200000e+06 inf =   0.000e+00 (240221)
*  1757: obj =   7.999200000e+06 inf =   0.000e+00 (240221)
*  1830: obj =   7.999200000e+06 inf =   0.000e+00 (240221)
*  1904: obj =   7.999200000e+06 inf =   0.000e+00 (240221)
*  1978: obj =   7.999200000e+06 inf =   0.000e+00 (240221)
*  2051: obj =   7.999200000e+06 inf =   0.000e+00 (240176)
*  2122: obj =   7.999200000e+06 inf =   0.000e+00 (240105)
*  2193: obj =   1.027458300e+07 inf =   0.000e+00 (180244)
*  2267: obj =   1.119520000e+07 inf =   0.000e+00 (132254)
*  2342: obj =   1.119520000e+07 inf =   0.000e+00 (132254)
*  2416: obj =   1.119520000e+07 inf =   0.000e+00 (132254)
*  2490: obj =   1.119520000e+07 inf =   0.000e+00 (132254)
*  2564: obj =   1.119520000e+07 inf =   0.000e+00 (132254)
*  2638: obj =   1.119520000e+07 inf =   0.000e+00 (132254)
*  2712: obj =   1.119520000e+07 inf =   0.000e+00 (132254)
*  2786: obj =   1.119520000e+07 inf =   0.000e+00 (132254)
*  2861: obj =   1.119520000e+07 inf =   0.000e+00 (132254)
*  2937: obj =   1.119520000e+07 inf =   0.000e+00 (132254)
*  3013: obj =   1.119520000e+07 inf =   0.000e+00 (132248)
*  3086: obj =   1.119520000e+07 inf =   0.000e+00 (156315)
*  3158: obj =   1.119520000e+07 inf =   0.000e+00 (156315)
*  3229: obj =   1.119520000e+07 inf =   0.000e+00 (156315)
*  3299: obj =   1.119520000e+07 inf =   0.000e+00 (156315)
*  3369: obj =   1.119520000e+07 inf =   0.000e+00 (156315)
*  3438: obj =   1.119520000e+07 inf =   0.000e+00 (156315)
*  3507: obj =   1.119520000e+07 inf =   0.000e+00 (156315)
*  3577: obj =   1.119520000e+07 inf =   0.000e+00 (156315)
*  3647: obj =   1.119520000e+07 inf =   0.000e+00 (156315)
*  3719: obj =   1.119520000e+07 inf =   0.000e+00 (156315)
*  3792: obj =   1.119520000e+07 inf =   0.000e+00 (156315)
*  3865: obj =   1.119520000e+07 inf =   0.000e+00 (156315)
*  3937: obj =   1.119520000e+07 inf =   0.000e+00 (156315)
*  4010: obj =   1.126297900e+07 inf =   0.000e+00 (169014)
*  4082: obj =   1.149422500e+07 inf =   0.000e+00 (192995)
*  4151: obj =   1.290961000e+07 inf =   0.000e+00 (192945)
*  4217: obj =   1.754480000e+07 inf =   0.000e+00 (37695) 1
*  4291: obj =   1.754480000e+07 inf =   0.000e+00 (37621)
*  4365: obj =   1.754480000e+07 inf =   0.000e+00 (37547)
*  4439: obj =   1.910960000e+07 inf =   0.000e+00 (25492)
*  4512: obj =   1.910960000e+07 inf =   0.000e+00 (25454)
*  4586: obj =   1.910960000e+07 inf =   0.000e+00 (25454)
*  4660: obj =   1.910960000e+07 inf =   0.000e+00 (25454)
*  4733: obj =   1.910960000e+07 inf =   0.000e+00 (25454)
*  4807: obj =   1.910960000e+07 inf =   0.000e+00 (25454)
*  4880: obj =   1.910960000e+07 inf =   0.000e+00 (25454)
*  4954: obj =   1.910960000e+07 inf =   0.000e+00 (25454)
*  5026: obj =   1.910960000e+07 inf =   0.000e+00 (25439)
*  5100: obj =   1.910960000e+07 inf =   0.000e+00 (25365)
*  5174: obj =   1.910960000e+07 inf =   0.000e+00 (25291)
*  5247: obj =   1.910960000e+07 inf =   0.000e+00 (25218)
*  5321: obj =   1.913351600e+07 inf =   0.000e+00 (25568)
*  5393: obj =   1.913351600e+07 inf =   0.000e+00 (25547)
*  5469: obj =   1.913351600e+07 inf =   0.000e+00 (25471)
*  5543: obj =   1.913351600e+07 inf =   0.000e+00 (37449)
*  5616: obj =   1.913351600e+07 inf =   0.000e+00 (37449)
*  5689: obj =   1.913351600e+07 inf =   0.000e+00 (37449)
*  5762: obj =   1.913351600e+07 inf =   0.000e+00 (37449)
*  5835: obj =   1.913351600e+07 inf =   0.000e+00 (37449)
*  5906: obj =   1.913351600e+07 inf =   0.000e+00 (37449)
*  5977: obj =   1.913351600e+07 inf =   0.000e+00 (37449)
*  6050: obj =   1.913351600e+07 inf =   0.000e+00 (25728)
*  6123: obj =   1.947670900e+07 inf =   0.000e+00 (13763)
*  6196: obj =   2.066254400e+07 inf =   0.000e+00 (25695)
*  6264: obj =   2.228994400e+07 inf =   0.000e+00 (1923) 1
*  6339: obj =   2.228994400e+07 inf =   0.000e+00 (1848)
*  6414: obj =   2.228994400e+07 inf =   0.000e+00 (1773)
*  6489: obj =   2.228994400e+07 inf =   0.000e+00 (1698)
*  6564: obj =   2.228994400e+07 inf =   0.000e+00 (1623)
*  6640: obj =   2.228994400e+07 inf =   0.000e+00 (1547)
*  6715: obj =   2.228994400e+07 inf =   0.000e+00 (1472)
*  6790: obj =   2.228994400e+07 inf =   0.000e+00 (1397)
*  6865: obj =   2.228994400e+07 inf =   0.000e+00 (1322)
*  6940: obj =   2.228994400e+07 inf =   0.000e+00 (1247)
*  7014: obj =   2.228994400e+07 inf =   0.000e+00 (1173)
*  7088: obj =   2.228994400e+07 inf =   0.000e+00 (1099)
*  7162: obj =   2.228994400e+07 inf =   0.000e+00 (1025)
*  7238: obj =   2.228994400e+07 inf =   0.000e+00 (949)
*  7314: obj =   2.228994400e+07 inf =   0.000e+00 (873)
*  7391: obj =   2.228994400e+07 inf =   0.000e+00 (796)
*  7467: obj =   2.228994400e+07 inf =   0.000e+00 (720)
*  7543: obj =   2.228994400e+07 inf =   0.000e+00 (644)
*  7619: obj =   2.228994400e+07 inf =   0.000e+00 (568)
*  7693: obj =   2.228994400e+07 inf =   0.000e+00 (494)
*  7768: obj =   2.228994400e+07 inf =   0.000e+00 (419)
*  7842: obj =   2.228994400e+07 inf =   0.000e+00 (345)
*  7916: obj =   2.229036000e+07 inf =   0.000e+00 (253)
*  7990: obj =   2.229036000e+07 inf =   0.000e+00 (179)
*  8065: obj =   2.229040000e+07 inf =   0.000e+00 (121)
*  8141: obj =   2.229040000e+07 inf =   0.000e+00 (45)
Removing LP perturbation [8186]...
*  8186: obj =   2.229040000e+07 inf =   0.000e+00 (0)
OPTIMAL LP SOLUTION FOUND
Integer optimization begins...
Long-step dual simplex will be used
+  8186: mip =     not found yet <=              +inf        (1; 0)
+  8186: >>>>>   2.229040000e+07 <=   2.229040000e+07   0.0% (1; 0)
+  8186: mip =   2.229040000e+07 <=     tree is empty   0.0% (0; 1)
INTEGER OPTIMAL SOLUTION FOUND
Time used:   53862.1 secs
Memory used: 4900.2 Mb (5138214032 bytes)
Writing MIP solution to 'C:\Users\LAB_C\AppData\Local\Temp\tmpw8bgid1c.glpk.raw'...
7013755 lines were written

Problem: 
- Name: unknown
  Lower bound: 22290400.0
  Upper bound: 22290400.0
  Number of objectives: 1
  Number of constraints: 4133730
  Number of variables: 2880016
  Number of nonzeros: 10271445
  Sense: maximize
Solver: 
- Status: ok
  Termination condition: optimal
  Statistics: 
    Branch and bound: 
      Number of bounded subproblems: 1
      Number of created subproblems: 1
  Error rc: 0
  Time: 53884.270807504654
Solution: 
- number of solutions: 0
  number of solutions displayed: 0

